# Objective value = 3.1092587584413127e+02
x[0] 1
x[1] 0
x[2] 0
x[3] 1
x[4] 1
x[5] 1
x[6] 0
x[7] 1
x[8] 1
x[9] 1
x[10] 0
x[11] 1
x[12] 1
x[13] 1
x[14] 1
x[15] 0
x[16] 1
x[17] 1
x[18] 0
x[19] 1
x[20] 0
x[21] 0
x[22] 0
x[23] 0
x[24] 0
x[25] 1
x[26] 1
x[27] 0
x[28] 0
x[29] 0
x[30] 0
x[31] 1
x[32] 0
x[33] 0
x[34] 0
x[35] 0
x[36] 0
x[37] 1
x[38] 1
x[39] 1
x[40] 1
x[41] 1
x[42] 0
x[43] 1
x[44] 1
x[45] 0
x[46] 1
x[47] 1
x[48] 1
x[49] 1
x[50] 1
x[51] 1
x[52] 0
x[53] 0
x[54] 0
x[55] 0
x[56] 0
x[57] 0
x[58] 1
x[59] 1
x[60] 1
x[61] 1
x[62] 0
x[63] 1
x[64] 1
x[65] 1
x[66] 0
x[67] 1
x[68] 0
x[69] 1
x[70] 1
x[71] 0
x[72] 1
x[73] 0
x[74] 0
x[75] 0
x[76] 1
x[77] 1
x[78] 1
x[79] 1
x[80] 1
x[81] 0
x[82] 0
x[83] 0
x[84] 0
x[85] 0
x[86] 1
x[87] 0
x[88] 1
x[89] 0
x[90] 1
x[91] 0
x[92] 1
x[93] 0
x[94] 1
x[95] 1
x[96] 1
x[97] 1
x[98] 1
x[99] 1
x[100] 0
x[101] 0
x[102] 0
x[103] 1
x[104] 1
x[105] 1
x[106] 1
x[107] 0
x[108] 1
x[109] 1
x[110] 0
x[111] 1
x[112] 1
x[113] 1
x[114] 1
x[115] 1
x[116] 0
x[117] 1
x[118] 1
x[119] 1
x[120] 0
x[121] 0
x[122] 1
x[123] 0
x[124] 1
x[125] 1
x[126] 0
x[127] 1
x[128] 0
x[129] 0
x[130] 1
x[131] 0
x[132] 1
x[133] 1
x[134] 1
x[135] 0
x[136] 0
x[137] 0
x[138] 1
x[139] 1
x[140] 0
x[141] 0
x[142] 0
x[143] 1
x[144] 0
x[145] 0
x[146] 1
x[147] 1
x[148] 1
x[149] 1
x[150] 1
x[151] 0
x[152] 0
x[153] 0
x[154] 0
x[155] 1
x[156] 1
x[157] 0
x[158] 1
x[159] 0
x[160] 1
x[161] 0
x[162] 1
x[163] 0
x[164] 1
x[165] 0
x[166] 0
x[167] 0
x[168] 0
x[169] 1
x[170] 0
x[171] 0
x[172] 1
x[173] 0
x[174] 1
x[175] 1
x[176] 1
x[177] 0
x[178] 1
x[179] 0
x[180] 1
x[181] 0
x[182] 0
x[183] 1
x[184] 1
x[185] 1
x[186] 1
x[187] 0
x[188] 0
x[189] 1
x[190] 1
x[191] 1
x[192] 1
x[193] 0
x[194] 1
x[195] 1
x[196] 0
x[197] 1
x[198] 0
x[199] 0
x[200] 1
x[201] 1
x[202] 0
x[203] 1
x[204] 1
x[205] 0
x[206] 1
x[207] 0
x[208] 0
x[209] 1
x[210] 0
x[211] 1
x[212] 0
x[213] 0
x[214] 1
x[215] 0
x[216] 0
x[217] 1
x[218] 1
x[219] 1
x[220] 0
x[221] 1
x[222] 1
x[223] 0
x[224] 0
x[225] 1
x[226] 1
x[227] 0
x[228] 0
x[229] 0
x[230] 1
x[231] 0
x[232] 0
x[233] 1
x[234] 0
x[235] 1
x[236] 0
x[237] 0
x[238] 0
x[239] 1
x[240] 1
x[241] 1
x[242] 1
x[243] 1
x[244] 0
x[245] 1
x[246] 0
x[247] 0
x[248] 1
x[249] 0
x[250] 1
x[251] 0
x[252] 1
x[253] 1
x[254] 0
x[255] 0
x[256] 0
x[257] 1
x[258] 1
x[259] 0
x[260] 0
x[261] 0
x[262] 0
x[263] 1
x[264] 1
x[265] 0
x[266] 0
x[267] 1
x[268] 1
x[269] 0
x[270] 1
x[271] 1
x[272] 0
x[273] 1
x[274] 1
x[275] 1
x[276] 0
x[277] 0
x[278] 1
x[279] 1
x[280] 1
x[281] 1
x[282] 1
x[283] 1
x[284] 0
x[285] 0
x[286] 0
x[287] 0
x[288] 1
x[289] 1
x[290] 0
x[291] 1
x[292] 1
x[293] 0
x[294] 1
x[295] 1
x[296] 0
x[297] 1
x[298] 1
x[299] 0
x[300] 1
x[301] 1
x[302] 1
x[303] 0
x[304] 1
x[305] 0
x[306] 1
x[307] 1
x[308] 1
x[309] 0
x[310] 1
x[311] 1
x[312] 1
x[313] 0
x[314] 0
x[315] 0
x[316] 0
x[317] 0
x[318] 1
x[319] 1
x[320] 0
x[321] 0
x[322] 1
x[323] 0
x[324] 0
x[325] 0
x[326] 0
x[327] 1
x[328] 0
x[329] 0
x[330] 1
x[331] 1
x[332] 1
x[333] 1
x[334] 0
x[335] 0
x[336] 0
x[337] 1
x[338] 1
x[339] 0
x[340] 1
x[341] 1
x[342] 0
x[343] 0
x[344] 1
x[345] 0
x[346] 1
x[347] 1
x[348] 0
x[349] 0
x[350] 1
x[351] 1
x[352] 1
x[353] 0
x[354] 1
x[355] 0
x[356] 0
x[357] 1
x[358] 1
x[359] 0
x[360] 0
x[361] 0
x[362] 1
x[363] 1
x[364] 1
x[365] 1
x[366] 0
x[367] 1
x[368] 0
x[369] 1
x[370] 0
x[371] 0
x[372] 0
x[373] 0
x[374] 0
x[375] 1
x[376] 1
x[377] 1
x[378] 0
x[379] 0
x[380] 0
x[381] 0
x[382] 1
x[383] 0
x[384] 1
x[385] 1
x[386] 1
x[387] 0
x[388] 0
x[389] 0
x[390] 1
x[391] 0
x[392] 0
x[393] 0
x[394] 0
x[395] 1
x[396] 0
x[397] 0
x[398] 0
x[399] 0
x[400] 0
x[401] 1
x[402] 1
x[403] 0
x[404] 1
x[405] 1
x[406] 0
x[407] 1
x[408] 0
x[409] 1
x[410] 0
x[411] 0
x[412] 0
x[413] 1
x[414] 1
x[415] 0
x[416] 1
x[417] 0
x[418] 0
x[419] 1
x[420] 1
x[421] 1
x[422] 1
x[423] 0
x[424] 0
x[425] 0
x[426] 1
x[427] 1
x[428] 0
x[429] 0
x[430] 0
x[431] 0
x[432] 1
x[433] 1
x[434] 1
x[435] 1
x[436] 1
x[437] 0
x[438] 0
x[439] 1
x[440] 0
x[441] 0
x[442] 0
x[443] 1
x[444] 0
x[445] 0
x[446] 0
x[447] 0
x[448] 0
x[449] 1
x[450] 1
x[451] 0
x[452] 0
x[453] 1
x[454] 1
x[455] 0
x[456] 0
x[457] 1
x[458] 1
x[459] 1
x[460] 1
x[461] 0
x[462] 0
x[463] 1
x[464] 1
x[465] 1
x[466] 1
x[467] 0
x[468] 1
x[469] 1
x[470] 1
x[471] 1
x[472] 1
x[473] 0
x[474] 1
x[475] 1
x[476] 1
x[477] 0
x[478] 0
x[479] 0
x[480] 0
x[481] 0
x[482] 1
x[483] 0
x[484] 0
x[485] 0
x[486] 0
x[487] 0
x[488] 1
x[489] 0
x[490] 0
x[491] 0
x[492] 1
x[493] 1
x[494] 1
x[495] 1
x[496] 1
x[497] 0
x[498] 0
x[499] 0
x[500] 0
x[501] 0
x[502] 0
x[503] 0
x[504] 1
x[505] 0
x[506] 0
x[507] 0
x[508] 0
x[509] 1
x[510] 1
x[511] 0
x[512] 0
x[513] 1
x[514] 0
x[515] 1
x[516] 1
x[517] 1
x[518] 1
x[519] 1
x[520] 1
x[521] 0
x[522] 0
x[523] 1
x[524] 0
x[525] 1
x[526] 0
x[527] 0
x[528] 1
x[529] 0
x[530] 0
x[531] 0
x[532] 1
x[533] 1
x[534] 0
x[535] 0
x[536] 0
x[537] 1
x[538] 1
x[539] 1
x[540] 1
x[541] 0
x[542] 0
x[543] 1
x[544] 0
x[545] 0
x[546] 0
x[547] 0
x[548] 1
x[549] 0
x[550] 1
x[551] 0
x[552] 1
x[553] 1
x[554] 0
x[555] 1
x[556] 0
x[557] 0
x[558] 0
x[559] 0
x[560] 0
x[561] 0
x[562] 0
x[563] 1
x[564] 1
x[565] 1
x[566] 0
x[567] 1
x[568] 1
x[569] 0
x[570] 0
x[571] 1
x[572] 1
x[573] 1
x[574] 1
x[575] 1
x[576] 0
x[577] 0
x[578] 0
x[579] 1
x[580] 0
x[581] 0
x[582] 1
x[583] 1
x[584] 1
x[585] 0
x[586] 1
x[587] 1
x[588] 1
x[589] 0
x[590] 1
x[591] 0
x[592] 1
x[593] 1
x[594] 1
x[595] 0
x[596] 1
x[597] 0
x[598] 0
x[599] 1
x[600] 0
x[601] 1
x[602] 1
x[603] 1
x[604] 1
x[605] 1
x[606] 0
x[607] 1
x[608] 0
x[609] 1
x[610] 0
x[611] 1
x[612] 0
x[613] 0
x[614] 1
x[615] 0
x[616] 1
x[617] 0
x[618] 1
x[619] 1
x[620] 1
x[621] 0
x[622] 0
x[623] 0
x[624] 0
x[625] 1
x[626] 0
x[627] 0
x[628] 0
x[629] 0
x[630] 0
x[631] 1
x[632] 1
x[633] 0
x[634] 1
x[635] 1
x[636] 1
x[637] 1
x[638] 1
x[639] 0
x[640] 0
x[641] 1
x[642] 0
x[643] 0
x[644] 1
x[645] 1
x[646] 0
x[647] 1
x[648] 1
x[649] 0
x[650] 1
x[651] 0
x[652] 0
x[653] 0
x[654] 1
x[655] 0
x[656] 1
x[657] 1
x[658] 1
x[659] 1
x[660] 1
x[661] 0
x[662] 0
x[663] 0
x[664] 0
x[665] 0
x[666] 1
x[667] 1
x[668] 0
x[669] 0
x[670] 1
x[671] 1
x[672] 1
x[673] 0
x[674] 0
x[675] 1
x[676] 1
x[677] 0
x[678] 0
x[679] 1
x[680] 0
x[681] 0
x[682] 0
x[683] 0
x[684] 1
x[685] 1
x[686] 0
x[687] 1
x[688] 1
x[689] 0
x[690] 0
x[691] 0
x[692] 1
x[693] 1
x[694] 0
x[695] 1
x[696] 1
x[697] 0
x[698] 0
x[699] 0
x[700] 0
x[701] 0
x[702] 1
x[703] 0
x[704] 1
x[705] 1
x[706] 0
x[707] 0
x[708] 1
x[709] 1
x[710] 0
x[711] 0
x[712] 1
x[713] 1
x[714] 0
x[715] 0
x[716] 1
x[717] 1
x[718] 0
x[719] 0
x[720] 0
x[721] 1
x[722] 1
x[723] 1
x[724] 0
x[725] 1
x[726] 0
x[727] 0
x[728] 0
x[729] 1
x[730] 1
x[731] 0
x[732] 0
x[733] 1
x[734] 1
x[735] 0
x[736] 1
x[737] 1
x[738] 1
x[739] 0
x[740] 0
x[741] 0
x[742] 1
x[743] 0
x[744] 1
x[745] 1
x[746] 0
x[747] 1
x[748] 1
x[749] 0
x[750] 0
x[751] 1
x[752] 0
x[753] 0
x[754] 0
x[755] 1
x[756] 1
x[757] 1
x[758] 0
x[759] 0
x[760] 0
x[761] 1
x[762] 1
x[763] 0
x[764] 1
x[765] 1
x[766] 1
x[767] 0
x[768] 0
x[769] 0
x[770] 0
x[771] 1
x[772] 0
x[773] 1
x[774] 0
x[775] 0
x[776] 1
x[777] 0
x[778] 0
x[779] 0
x[780] 0
x[781] 0
x[782] 1
x[783] 1
x[784] 0
x[785] 1
x[786] 0
x[787] 0
x[788] 1
x[789] 0
x[790] 0
x[791] 1
x[792] 0
x[793] 1
x[794] 1
x[795] 0
x[796] 0
x[797] 1
x[798] 0
x[799] 0
x[800] 1
x[801] 0
x[802] 0
x[803] 1
x[804] 0
x[805] 0
x[806] 1
x[807] 1
x[808] 0
x[809] 1
x[810] 0
x[811] 0
x[812] 1
x[813] 0
x[814] 1
x[815] 0
x[816] 1
x[817] 0
x[818] 1
x[819] 0
x[820] 0
x[821] 0
x[822] 1
x[823] 1
x[824] 0
x[825] 1
x[826] 1
x[827] 0
x[828] 1
x[829] 0
x[830] 0
x[831] 0
x[832] 1
x[833] 0
x[834] 0
x[835] 1
x[836] 0
x[837] 0
x[838] 1
x[839] 0
x[840] 0
x[841] 0
x[842] 0
x[843] 1
x[844] 1
x[845] 1
x[846] 1
x[847] 0
x[848] 1
x[849] 0
x[850] 1
x[851] 0
x[852] 1
x[853] 0
x[854] 0
x[855] 1
x[856] 1
x[857] 0
x[858] 0
x[859] 1
x[860] 0
x[861] 0
x[862] 0
x[863] 1
x[864] 0
x[865] 0
x[866] 0
x[867] 0
x[868] 1
x[869] 1
x[870] 1
x[871] 0
x[872] 1
x[873] 1
x[874] 0
x[875] 0
x[876] 0
x[877] 0
x[878] 0
x[879] 0
x[880] 1
x[881] 1
x[882] 1
x[883] 1
x[884] 0
x[885] 0
x[886] 0
x[887] 1
x[888] 1
x[889] 1
x[890] 0
x[891] 0
x[892] 1
x[893] 0
x[894] 0
x[895] 0
x[896] 1
x[897] 0
x[898] 0
x[899] 0
x[900] 0
x[901] 1
x[902] 0
x[903] 0
x[904] 1
x[905] 0
x[906] 0
x[907] 0
x[908] 0
x[909] 1
x[910] 1
x[911] 1
x[912] 0
x[913] 1
x[914] 1
x[915] 0
x[916] 1
x[917] 0
x[918] 1
x[919] 1
x[920] 0
x[921] 1
x[922] 1
x[923] 0
x[924] 1
x[925] 0
x[926] 1
x[927] 1
x[928] 1
x[929] 1
x[930] 1
x[931] 1
x[932] 1
x[933] 0
x[934] 1
x[935] 0
x[936] 0
x[937] 0
x[938] 0
x[939] 1
x[940] 1
x[941] 0
x[942] 0
x[943] 1
x[944] 1
x[945] 1
x[946] 1
x[947] 0
x[948] 1
x[949] 1
x[950] 0
x[951] 0
x[952] 1
x[953] 0
x[954] 0
x[955] 1
x[956] 1
x[957] 0
x[958] 1
x[959] 0
x[960] 1
x[961] 0
x[962] 0
x[963] 1
x[964] 0
x[965] 1
x[966] 1
x[967] 0
x[968] 1
x[969] 0
x[970] 1
x[971] 0
x[972] 1
x[973] 1
x[974] 1
x[975] 0
x[976] 1
x[977] 0
x[978] 0
x[979] 1
x[980] 1
x[981] 0
x[982] 0
x[983] 0
x[984] 0
x[985] 1
x[986] 1
x[987] 1
x[988] 0
x[989] 1
x[990] 1
x[991] 0
x[992] 1
x[993] 0
x[994] 0
x[995] 0
x[996] 0
x[997] 0
x[998] 0
x[999] 1
